Gurobi Optimizer version 9.1.2 build v9.1.2rc0 (linux64)
Thread count: 36 physical cores, 72 logical processors, using up to 32 threads
Optimize a model with 12 rows, 57 columns and 590 nonzeros
Model fingerprint: 0xf32eec78
Model has 47 quadratic constraints
Coefficient statistics:
  Matrix range     [2e-05, 3e+00]
  QMatrix range    [1e+00, 1e+00]
  QLMatrix range   [1e+00, 1e+00]
  Objective range  [8e-03, 7e-01]
  Bounds range     [1e+00, 1e+00]
  RHS range        [1e+00, 1e+00]
Presolve removed 9 rows and 0 columns

Continuous model is non-convex -- solving as a MIP.

Presolve removed 9 rows and 0 columns
Presolve time: 0.00s
Presolved: 189 rows, 57 columns, 443 nonzeros
Presolved model has 47 bilinear constraint(s)
Variable types: 57 continuous, 0 integer (0 binary)

Root relaxation: objective -1.743721e+00, 44 iterations, 0.00 seconds

    Nodes    |    Current Node    |     Objective Bounds      |     Work
 Expl Unexpl |  Obj  Depth IntInf | Incumbent    BestBd   Gap | It/Node Time

     0     0   -1.74372    0   38          -   -1.74372      -     -    0s
H    0     0                       0.6147548   -1.74372   384%     -    0s
     0     0   -1.64739    0    1    0.61475   -1.64739   368%     -    0s
H    0     0                      -1.6450460   -1.64739  0.14%     -    0s
     0     0     cutoff    0        -1.64505   -1.64505  0.00%     -    0s

Cutting planes:
  RLT: 25
  BQP: 3

Explored 1 nodes (76 simplex iterations) in 0.01 seconds
Thread count was 32 (of 72 available processors)

Solution count 2: -1.64505 0.614755 
No other solutions better than -1.64505

Optimal solution found (tolerance 1.00e-04)
Best objective -1.645045978473e+00, best bound -1.645045978473e+00, gap 0.0000%

User-callback calls 78, time in user-callback 0.00 sec
Gurobi Optimizer version 9.1.2 build v9.1.2rc0 (linux64)
Thread count: 36 physical cores, 72 logical processors, using up to 32 threads
Optimize a model with 12 rows, 55 columns and 570 nonzeros
Model fingerprint: 0x04dbb87a
Model has 45 quadratic constraints
Coefficient statistics:
  Matrix range     [8e-05, 1e+00]
  QMatrix range    [1e+00, 1e+00]
  QLMatrix range   [1e+00, 1e+00]
  Objective range  [6e-02, 1e+00]
  Bounds range     [1e+00, 1e+00]
  RHS range        [1e+00, 1e+00]
Presolve removed 9 rows and 0 columns

Continuous model is non-convex -- solving as a MIP.

Presolve removed 9 rows and 0 columns
Presolve time: 0.00s
Presolved: 183 rows, 55 columns, 432 nonzeros
Presolved model has 45 bilinear constraint(s)
Variable types: 55 continuous, 0 integer (0 binary)

Root relaxation: objective -4.981157e+00, 45 iterations, 0.00 seconds

    Nodes    |    Current Node    |     Objective Bounds      |     Work
 Expl Unexpl |  Obj  Depth IntInf | Incumbent    BestBd   Gap | It/Node Time

     0     0   -4.98116    0   10          -   -4.98116      -     -    0s
H    0     0                      -4.7143446   -4.98116  5.66%     -    0s
     0     0   -4.85326    0   28   -4.71434   -4.85326  2.95%     -    0s
     0     0   -4.83818    0    3   -4.71434   -4.83818  2.63%     -    0s
H    0     0                      -4.8358350   -4.83818  0.05%     -    0s
     0     0   -4.83748    0    3   -4.83584   -4.83748  0.03%     -    0s
     0     0   -4.83589    0    3   -4.83584   -4.83589  0.00%     -    0s

Cutting planes:
  RLT: 16
  BQP: 5

Explored 1 nodes (124 simplex iterations) in 0.03 seconds
Thread count was 32 (of 72 available processors)

Solution count 2: -4.83584 -4.71434 

Optimal solution found (tolerance 1.00e-04)
Best objective -4.835835038669e+00, best bound -4.835893656223e+00, gap 0.0012%

User-callback calls 86, time in user-callback 0.00 sec



objective value: -4.835835038668998
objective bound: -4.835893656223249
x_opt: [1.0, 1.0, 0.992794716092389, 0.08702180060547715, 0.0, 1.0, 0.17506049302514268, 1.0, 1.0, 1.0000000000000004]
GUROBI solution time: 0.02913212776184082

